Zn1 S1
1.0
3.301912 0.000000 1.906360
1.100637 3.113073 1.906360
0.000000 0.000000 3.812720
S Zn
1 1
direct
0.250000 0.250000 0.250000 S
0.000000 0.000000 0.000000 Zn
