Zn2 O2
1.0
1.592050 -2.757511 0.000000
1.592050 2.757511 0.000000
0.000000 0.000000 5.155100
Zn O
2 2
direct
0.666667 0.333333 0.500000 Zn
0.333333 0.666667 0.000000 Zn
0.666667 0.333333 0.880310 O
0.333333 0.666667 0.380310 O
